(set-option :produce-models true)
(set-logic QF_UF)
(declare-fun p21() Bool)
(declare-fun p6() Bool)
(declare-fun p16() Bool)
(declare-fun p4() Bool)
(declare-fun p9() Bool)
(declare-fun p5() Bool)
(declare-fun p1() Bool)
(declare-fun p0() Bool)
(declare-fun p14() Bool)
(declare-fun p11() Bool)
(declare-fun p20() Bool)
(declare-fun p15() Bool)
(declare-fun p17() Bool)
(declare-fun p3() Bool)
(declare-fun p8() Bool)
(declare-fun p7() Bool)
(declare-fun p23() Bool)
(declare-fun p19() Bool)
(declare-fun p18() Bool)
(declare-fun p24() Bool)
(declare-fun p22() Bool)
(declare-fun p10() Bool)
(declare-fun p2() Bool)
(declare-fun p12() Bool)
(declare-fun p13() Bool)
(assert
(and (or (not p21) (not p6) (not p16)) (or p4 p9 (not p5)) (or p1 p0 p14) (or (not p11) p21 p1) (or (not p20) (not p5) (not p15)) (or p17 p14 (not p14)) (or (not p3) p17 p3) (or p8 p7 (not p14)) (or p7 p5 p9) (or (not p20) (not p23) (not p0)) (or p7 (not p16) p23) (or (not p15) p19 (not p18)) (or (not p24) (not p15) p1) (or p6 (not p5) (not p4)) (or p0 (not p22) p19) (or p23 p10 p14) (or p22 (not p14) (not p14)) (or p20 p11 (not p4)) (or (not p24) p6 (not p1)) (or p6 p24 (not p16)) (or (not p20) (not p3) p2) (or (not p24) p0 p12) (or (not p11) (not p9) p11) (or (not p0) (not p20) p6) (or p22 p6 (not p12)) (or p22 p12 (not p16)) (or (not p23) (not p18) (not p13)) (or p14 (not p16) p24) (or p14 (not p23) (not p2)) (or p7 (not p10) p10) (or (not p15) p1 p17) (or p7 p17 p24) (or (not p13) p15 p3) (or p12 (not p23) p2) (or p18 p5 p20) (or (not p7) (not p21) p7) (or (not p14) p4 p24) (or p23 p17 p2) (or p20 p9 (not p23)) (or p19 (not p8) p19) (or p20 (not p13) p7) (or p12 (not p9) (not p3)) (or p16 (not p16) (not p22)) (or p20 p24 p9) (or p20 p1 p24) (or (not p18) p21 p24) (or p23 p3 p22) (or (not p18) p8 (not p24)) (or (not p15) (not p12) p3) (or (not p11) p14 p18) (or (not p14) (not p5) (not p19)) (or p22 p19 p0) (or (not p3) p2 p4) (or (not p21) (not p18) (not p10)) (or p13 (not p10) (not p9)) (or p22 p2 (not p24)) (or p5 (not p7) (not p22)) (or (not p18) p19 p23) (or (not p11) p20 (not p7)) (or (not p4) (not p16) (not p24)) (or p1 p10 (not p11)) (or p23 p14 (not p6)) (or p16 p5 p10) (or (not p7) p24 p17) (or p3 p6 (not p4)) (or p18 (not p20) (not p15)) (or (not p22) p1 (not p3)) (or (not p15) p23 p13) (or p0 p16 p6) (or (not p13) p13 (not p4)) (or p23 (not p21) (not p22)) (or (not p15) (not p19) p9) (or p10 (not p3) (not p23)) (or p13 p15 p20) (or p22 p20 p10) (or (not p0) (not p20) (not p0)) (or p21 p10 (not p13)) (or p12 (not p24) (not p15)) (or p7 (not p18) (not p0)) (or (not p20) p4 p2) (or p20 p24 (not p19)) (or (not p15) (not p14) p19) (or (not p1) (not p16) p24) (or (not p11) (not p21) p4) (or p9 p24 (not p10)) (or (not p1) p24 (not p2)) (or p18 (not p9) (not p16)) (or (not p24) (not p20) p21) (or (not p17) p17 (not p24)) (or (not p18) (not p8) (not p24)) (or p0 p2 p15) (or p18 p18 (not p18)) (or (not p11) (not p6) p6) (or p7 (not p15) p15) (or (not p15) (not p14) p16) (or p12 (not p14) p2) (or p19 (not p20) p20) (or p2 p22 p13) (or (not p12) p18 (not p2)) (or (not p23) (not p7) p11) (or (not p0) (not p23) p9) (or p5 p0 p15) (or p1 p22 (not p20)) (or p5 (not p7) p17) (or p17 p24 (not p2)) (or (not p3) (not p5) p6) (or (not p12) (not p7) p18))
)
(check-sat)
(get-model)
